 Code   932
 Dimension, Fixed Cost
   100        3000
 Facility, Client, Transportation Cost
     1       16           3
     1       20           3
     1       22           3
     1       23           1
     1       32           2
     1       67           4
     1       74           1
     1       81           4
     1      100           1
     2        4           4
     2        5           0
     2       19           3
     2       37           0
     2       42           0
     2       49           1
     2       63           3
     2       65           1
     2       83           4
     2       87           4
     3        3           0
     3        5           0
     3       26           2
     3       27           3
     3       35           2
     3       39           0
     3       41           4
     3       68           0
     3       75           0
     3       77           3
     3       80           4
     3       84           4
     3       85           3
     3       90           4
     3       99           2
     4       19           2
     4       28           2
     4       46           2
     4       67           3
     4       75           4
     4       83           1
     4       95           3
     4       98           0
     4       99           1
     5        6           1
     5       25           3
     5       28           3
     5       29           4
     5       36           1
     5       40           3
     5       69           0
     5       71           4
     5       76           3
     5       82           1
     6        2           0
     6       18           4
     6       28           3
     6       41           1
     6       53           0
     6       55           2
     6       57           4
     6       60           0
     6       61           1
     6       65           3
     6       78           1
     6       84           3
     6       85           2
     7       18           4
     7       36           2
     7       38           4
     7       43           1
     7       54           4
     7       59           2
     7       63           2
     7       76           1
     7       85           3
     7       87           3
     7       88           2
     7       99           4
     8       10           4
     8       13           1
     8       42           3
     8       44           3
     8       71           4
     8       75           3
     8       89           4
     8       96           0
     8      100           2
     9       10           4
     9       16           4
     9       23           0
     9       31           4
     9       35           0
     9       48           2
     9       56           4
     9       64           2
     9       71           2
     9       73           1
     9       75           3
    10       13           4
    10       14           2
    10       17           2
    10       24           1
    10       29           1
    10       38           3
    10       43           4
    10       50           3
    10       60           3
    10       61           3
    10       90           0
    10       97           4
    11       16           0
    11       21           2
    11       49           1
    11       79           2
    11       80           4
    11       87           2
    11       89           0
    12       22           3
    12       71           4
    12       72           1
    12       81           2
    13        1           2
    13       44           2
    13       53           0
    13       65           1
    13       69           1
    13       83           0
    13       99           2
    14       23           1
    14       59           2
    14       91           2
    15        7           4
    15       10           1
    15       34           4
    15       36           2
    15       42           2
    15       54           0
    15       56           4
    15       57           0
    15       60           1
    15       64           0
    15       70           4
    15       78           4
    16       12           0
    16       23           4
    16       29           1
    16       44           2
    16       51           4
    16       53           3
    16       58           0
    16       63           1
    16       75           4
    17        5           4
    17        7           0
    17       27           1
    17       30           2
    17       31           3
    17       43           2
    17       63           1
    17       84           0
    17       91           2
    17       92           1
    17       94           3
    17       95           4
    18        2           0
    18       10           4
    18       17           4
    18       40           4
    18       46           4
    18       52           1
    18       53           3
    18       61           3
    18       87           3
    18       89           0
    18       93           3
    18       99           1
    19        6           4
    19        8           3
    19       13           0
    19       25           1
    19       29           4
    19       33           0
    19       36           0
    19       40           3
    19       47           4
    19       48           2
    19       51           4
    19       52           0
    19       68           0
    19       78           1
    19       92           1
    19       94           0
    19       96           3
    19       98           1
    20        3           0
    20        6           1
    20        8           1
    20       37           1
    20       39           4
    20       45           3
    20       66           0
    20       73           2
    20       82           1
    20       86           3
    20       92           1
    20       99           2
    21       31           1
    21       45           4
    21       50           1
    21       54           2
    21       58           1
    21       73           1
    21       83           1
    21       88           1
    21       90           4
    21       94           3
    22        7           2
    22       20           4
    22       21           2
    22       29           4
    22       59           3
    22       74           3
    22       84           2
    22       87           4
    23        9           0
    23       11           1
    23       44           2
    23       45           0
    23       62           1
    23       66           4
    23       68           2
    24        1           2
    24       12           4
    24       25           4
    24       30           4
    24       39           3
    24       60           4
    25        3           2
    25       21           1
    25       22           2
    25       24           1
    25       41           2
    25       54           3
    25       59           1
    25       71           4
    25       74           2
    25       75           1
    25       83           1
    25       96           4
    25      100           0
    26       55           4
    26       65           4
    26       70           0
    26       77           1
    27        8           1
    27       14           0
    27       17           2
    27       33           3
    27       42           1
    27       46           1
    27       64           3
    27       74           3
    27       85           1
    27       93           0
    28       14           2
    28       45           3
    28       48           2
    28       56           2
    28       58           0
    28       59           0
    28       79           1
    28       86           0
    28       89           3
    28       91           3
    28      100           2
    29        2           2
    29       22           2
    29       42           2
    29       46           3
    29       50           0
    29       57           0
    29       64           2
    29       79           2
    29       84           1
    29       98           0
    30        4           4
    30        6           4
    30       15           4
    30       17           0
    30       24           3
    30       29           3
    30       33           4
    30       35           1
    30       36           3
    30       55           3
    30       56           0
    30       59           3
    30       62           0
    30       64           1
    30       67           1
    30       86           0
    30       89           3
    30       99           3
    31        6           0
    31        7           2
    31       26           2
    31       39           2
    31       45           4
    31       49           2
    31       52           1
    31       55           1
    31       62           1
    31       64           0
    31       77           4
    31       78           3
    31       82           2
    31       91           1
    31       95           0
    32       10           4
    32       12           0
    32       30           2
    32       33           3
    32       40           4
    32       47           0
    32       50           1
    32       54           1
    32       68           3
    32       77           4
    32       85           3
    32       90           4
    32       94           2
    32       98           3
    33        1           3
    33        2           0
    33       12           0
    33       46           4
    33       54           3
    33       61           0
    33       92           3
    34        4           4
    34       10           2
    34       21           1
    34       25           0
    34       32           3
    34       51           2
    34       56           1
    35        4           4
    35        9           3
    35       42           2
    35       52           2
    35       56           0
    35       61           1
    35       70           3
    35       78           2
    35       97           4
    35       98           1
    36        7           4
    36        8           4
    36       13           4
    36       27           2
    36       33           4
    36       77           0
    36       80           3
    36       83           3
    36       88           3
    36       93           0
    36       94           0
    36      100           3
    37        1           0
    37        3           0
    37        7           3
    37       18           1
    37       41           1
    37       43           4
    37       45           4
    37       52           3
    37       58           0
    37       74           3
    37       76           3
    37       79           3
    37       88           0
    37       94           0
    38        3           0
    38        5           0
    38       23           4
    38       48           3
    38       64           2
    38       67           3
    38       68           3
    38       75           4
    38       83           2
    38       88           0
    39        7           0
    39       17           4
    39       18           3
    39       19           1
    39       21           0
    39       22           2
    39       28           2
    39       34           0
    39       48           2
    39       49           0
    39       56           1
    39       73           1
    39       76           2
    39       86           4
    39       97           2
    40        5           4
    40       18           1
    40       24           0
    40       27           1
    40       47           4
    40       50           0
    40       72           4
    40       85           3
    41       17           0
    41       20           0
    41       34           0
    41       42           1
    41       44           4
    41       48           4
    41       52           2
    41       66           0
    41       81           1
    41       92           1
    41       93           3
    41      100           0
    42        7           4
    42       14           1
    42       23           1
    42       32           0
    42       46           2
    42       47           1
    42       50           0
    42       51           1
    42       66           0
    42       85           4
    43       15           3
    43       24           1
    43       33           1
    43       38           3
    43       53           1
    43       58           3
    43       78           4
    43       84           0
    43       93           1
    44       19           2
    44       26           3
    44       33           0
    44       37           3
    44       65           4
    44       71           0
    44       76           4
    44       81           0
    44       82           4
    44       83           1
    44       89           0
    45       37           2
    45       46           1
    45       55           1
    45       65           4
    46        1           0
    46       30           2
    46       31           0
    46       38           0
    46       40           4
    46       47           0
    46       49           1
    46       62           2
    46       65           3
    46       71           2
    46       77           2
    46       80           3
    46       82           0
    46       84           0
    46       99           0
    47        6           0
    47       11           2
    47       26           1
    47       32           1
    47       35           2
    47       47           3
    47       59           2
    47       93           2
    48        5           3
    48       18           3
    48       24           1
    48       35           4
    48       41           4
    48       50           1
    48       55           3
    48       84           3
    49        2           3
    49        3           0
    49       13           1
    49       19           3
    49       28           1
    49       31           0
    49       49           4
    49       51           3
    49       60           3
    49       74           4
    49       75           0
    49       91           0
    50        4           0
    50        5           1
    50       15           1
    50       17           0
    50       19           1
    50       47           3
    50       67           1
    50       80           1
    50       87           3
    50       95           1
    51        2           0
    51       87           4
    52        2           4
    52        4           4
    52        5           1
    52       34           3
    52       44           1
    52       54           1
    52       68           3
    52       76           3
    52      100           4
    53        8           1
    53       24           0
    53       34           1
    53       41           2
    53       43           2
    53       84           3
    53       86           2
    53       97           4
    53      100           4
    54       20           4
    54       26           1
    54       33           0
    54       35           1
    54       60           0
    54       70           1
    54       75           4
    54       80           0
    54       90           3
    55       11           1
    55       17           0
    55       28           1
    55       29           0
    55       40           3
    55       43           3
    55       49           3
    55       52           0
    55       64           0
    55       90           1
    55       94           0
    55       98           2
    56        1           3
    56        5           1
    56       16           0
    56       47           2
    56       50           3
    56       56           4
    56       63           1
    56       77           0
    56       80           2
    56       83           2
    56       97           3
    57        9           4
    57       16           1
    57       43           0
    57       51           2
    57       53           2
    57       54           2
    57       62           3
    57       66           0
    57       70           1
    57       93           0
    57       95           4
    58        8           0
    58       11           4
    58       13           4
    58       20           0
    58       24           0
    58       25           3
    58       26           1
    58       68           4
    58       69           0
    58       81           2
    58       90           4
    58       97           2
    59       11           1
    59       34           3
    59       49           4
    59       58           2
    59       66           3
    59       96           3
    60        1           3
    60        6           2
    60        7           3
    60       15           2
    60       19           1
    60       45           0
    60       53           4
    60       61           1
    60       62           3
    60       70           4
    60       72           0
    60       80           4
    60       81           3
    60       82           3
    61        2           3
    61        6           3
    61        9           1
    61       14           3
    61       15           1
    61       27           1
    61       64           0
    61       79           3
    62        4           3
    62       11           3
    62       29           3
    62       39           3
    62       67           2
    62       69           3
    62       80           1
    62       98           0
    63        1           1
    63       14           2
    63       18           4
    63       22           4
    63       36           1
    63       58           0
    63       59           0
    63       61           1
    63       75           4
    63       85           1
    63       87           4
    63       88           0
    63       93           0
    64       13           4
    64       15           3
    64       19           0
    64       25           4
    64       30           0
    64       34           1
    64       41           3
    64       46           0
    64       51           2
    64       63           3
    64       69           4
    64       71           0
    64       72           3
    65       18           2
    65       20           2
    65       28           4
    65       41           0
    65       55           4
    65       71           0
    65      100           1
    66        1           3
    66       14           1
    66       31           1
    66       32           2
    66       36           1
    66       38           0
    66       45           0
    66       72           2
    66       86           0
    66       92           1
    66       93           2
    67        2           2
    67       19           4
    67       20           4
    67       21           4
    67       26           2
    67       27           2
    67       37           0
    67       57           1
    67       58           3
    67       60           1
    67       70           3
    67       71           2
    67       72           0
    67       74           0
    67       78           2
    67       88           4
    67       96           2
    68       14           4
    68       28           3
    68       43           2
    68       53           1
    68       61           0
    68       66           0
    68       70           2
    68       87           1
    68       92           0
    69        5           1
    69       12           1
    69       17           2
    69       24           2
    69       27           2
    69       30           4
    69       43           2
    69       49           4
    69       63           2
    69       88           0
    70       11           3
    70       31           4
    70       43           3
    70       45           3
    70       47           4
    70       51           2
    70       54           1
    70       66           3
    70       90           2
    71       15           1
    71       21           0
    71       68           0
    71       89           1
    71       95           1
    72        4           1
    72       13           2
    72       18           0
    72       23           0
    72       25           0
    72       32           0
    72       38           4
    72       39           2
    72       54           3
    72       58           1
    72       73           0
    72       77           4
    72       91           4
    72       95           0
    73        7           1
    73       30           0
    73       39           1
    73       51           2
    73       57           1
    73       77           0
    73       82           3
    73       86           3
    73       91           0
    74        9           3
    74       55           0
    74       60           3
    74       76           4
    75       12           3
    75       39           3
    75       66           4
    75       95           4
    75       96           2
    75       99           3
    76       13           3
    76       37           4
    76       48           0
    76       67           1
    76       78           0
    76       79           0
    76       96           2
    77       23           4
    77       25           4
    77       26           2
    77       30           0
    77       34           4
    77       35           1
    77       38           2
    77       50           0
    77       56           4
    77       62           4
    77       76           1
    77       83           3
    77       98           0
    78        8           3
    78       19           3
    78       22           2
    78       26           4
    78       31           1
    78       34           0
    78       36           0
    78       37           3
    78       38           2
    78       39           0
    78       66           0
    78       74           4
    78       81           2
    78       90           2
    79        4           3
    79       23           1
    79       30           0
    79       36           4
    79       39           0
    79       45           3
    79       48           2
    79       52           4
    79       53           2
    79       57           3
    79       68           0
    79       74           2
    79       96           4
    79       97           4
    80       14           0
    80       20           2
    80       21           4
    80       24           0
    80       32           0
    80       37           0
    80       62           1
    80       69           0
    80       72           0
    80       96           1
    81       11           0
    81       13           2
    81       16           2
    81       29           3
    81       42           2
    81       73           1
    81       79           0
    81       88           2
    82        8           4
    82       16           4
    82       27           1
    82       32           0
    82       40           2
    82       53           0
    82       57           0
    82       62           2
    82       69           2
    82       72           2
    82       85           1
    82       92           0
    82       95           4
    83        9           2
    83       22           2
    83       27           1
    83       38           2
    83       61           4
    83       67           1
    83       68           2
    83       73           2
    83       76           1
    83       79           4
    83       81           1
    83       86           1
    83       91           4
    83       97           4
    84        9           2
    84       12           4
    84       15           1
    84       28           1
    84       52           1
    84       56           3
    84       70           2
    84       88           1
    84       96           1
    85       10           3
    85       16           4
    85       30           1
    85       34           2
    85       40           3
    85       44           0
    85       94           4
    85      100           1
    86        4           2
    86       40           3
    86       64           4
    86       69           0
    86       70           3
    86       76           3
    86       80           3
    87        3           1
    87        9           2
    87       10           0
    87       16           3
    87       21           0
    87       38           2
    87       46           2
    87       49           2
    87       57           1
    87       63           2
    87       65           1
    87       87           4
    87       97           3
    88       17           1
    88       22           1
    88       31           3
    88       37           2
    88       52           2
    88       82           4
    88       89           2
    88       93           1
    89       12           3
    89       27           3
    89       31           4
    89       35           3
    89       40           0
    89       44           2
    89       48           4
    89       73           0
    89       78           3
    89       81           3
    89       92           2
    89       94           3
    90       23           2
    90       44           3
    90       47           1
    90       48           4
    90       58           0
    90       91           1
    91        3           2
    91        9           0
    91       14           2
    91       25           0
    91       35           1
    91       42           1
    91       74           1
    91       77           4
    91       85           2
    91       86           0
    91       90           1
    91       98           2
    92        8           4
    92       10           4
    92       69           0
    92       84           0
    92       86           0
    93        8           2
    93       18           0
    93       20           1
    93       21           3
    93       55           0
    93       63           0
    93       67           1
    93       72           0
    93       73           2
    93       81           3
    93       95           0
    93       97           1
    94        9           0
    94       10           3
    94       15           4
    94       26           1
    94       59           4
    94       60           2
    94       62           2
    94       65           2
    94       72           2
    95        2           3
    95        3           3
    95       16           1
    95       32           3
    95       46           4
    95       69           2
    95       79           1
    95       94           1
    96        6           3
    96       37           3
    96       57           4
    96       61           1
    96       63           2
    96       67           0
    97       12           2
    97       33           4
    97       36           2
    97       44           1
    97       60           3
    97       78           4
    97       79           3
    97       91           1
    98        3           0
    98       11           4
    98       15           4
    98       22           2
    98       25           3
    98       29           4
    98       32           4
    98       33           2
    98       51           4
    98       57           2
    98       59           3
    98       65           2
    98       82           0
    98       89           4
    99        1           1
    99        6           4
    99       12           4
    99       28           3
    99       35           2
    99       41           2
    99       42           3
    99       55           4
    99       82           0
    99       92           3
    99       99           2
   100       11           3
   100       20           3
   100       41           1
   100       50           3
   100       73           1
   100       89           2
   100       98           4
